p cnf 19 11
a 1 0
e 2 3 0
a 4 0
e 5 6 7 0
a 8 9 10 11 0
e 12 13 14 15 16 0
a 17 18 19 0
-1 9 0
3 6 -7 -5 14 0
-7 -6 4 10 0
16 13 -12 18 0
2 -12 6 18 0
-10 -6 -14 -3 13 0
-10 -7 -11 8 5 0
17 18 -15 -8 0
-10 -14 16 0
9 8 -5 -14 6 0
15 6 18 1 0
